# Compound: Al2N2. Old comment: Al2N2
  1.0000000000
  1.5571195700  -2.6970102000   0.0000000000
  1.5571195700   2.6970102000   0.0000000000
  0.0000000000  -0.0000000000   4.9786485100
Al    N
    2     2
Direct
  0.3333333300   0.6666666700   0.9964318800
  0.6666666700   0.3333333300   0.4964318800
  0.3333333300   0.6666666700   0.3785681200
  0.6666666700   0.3333333300   0.8785681200
