EDIFFG = -0.01
ENCUT = 550
GGA = PS
IBRION = 2
ICHARG = 2
ISIF = 3
ISMEAR = -5
ISTART = 0
NSW = 60
