# No comment
0
Gamma
           10            10             6
  0.000000000   0.000000000   0.000000000
