# Compound: Al2N2. Old comment: Al2N2
  1.0000000000
  1.5620945618  -2.7056271472   0.0000000000
  1.5620945618   2.7056271472   0.0000000000
  0.0000000000   0.0000000000   5.0015135647
Al    N
    2     2
Direct
  0.3333333333   0.6666666667   0.0000000000
  0.6666666667   0.3333333333   0.5000000000
  0.3333333333   0.6666666667   0.3750000000
  0.6666666667   0.3333333333   0.8750000000
