# Compound: In2N2. Old comment: In2N2   
   1.00000000000000     
     1.7936224572809822   -3.1066452215748694    0.0000000000000000
     1.7936224572809822    3.1066452215748694   -0.0000000000000000
     0.0000000000000000    0.0000000000000000    5.7772329748591016
  In              N             
     2     2
Direct
  0.3333333300000021  0.6666666699999979  0.9976913028356815
  0.6666666699999979  0.3333333300000021  0.4976913028356816
  0.3333333300000021  0.6666666699999979  0.3773086971643184
  0.6666666699999979  0.3333333300000021  0.8773086971643185
 
  0.00000000E+00  0.00000000E+00  0.00000000E+00
  0.00000000E+00  0.00000000E+00  0.00000000E+00
  0.00000000E+00  0.00000000E+00  0.00000000E+00
  0.00000000E+00  0.00000000E+00  0.00000000E+00
