# Compound: In2N2. Old comment: In2N2
  1.0000000000
  1.7936538700  -3.1066996300  -0.0000000000
  1.7936538700   3.1066996300  -0.0000000000
  0.0000000000  -0.0000000000   5.7772537900
In    N
    2     2
Direct
  0.3333333300   0.6666666700   0.9976931400
  0.6666666700   0.3333333300   0.4976931400
  0.3333333300   0.6666666700   0.3773068600
  0.6666666700   0.3333333300   0.8773068600
