# Compound: Ga2N2. Old comment: Ga2N2
  1.0000000000
  1.6094270800  -2.7876094700   0.0000000000
  1.6094270800   2.7876094700   0.0000000000
 -0.0000000000  -0.0000000000   5.2341475900
Ga    N
    2     2
Direct
  0.3333333300   0.6666666700   0.9989724000
  0.6666666700   0.3333333300   0.4989724000
  0.3333333300   0.6666666700   0.3760276000
  0.6666666700   0.3333333300   0.8760276000
