# Compound: Ga2N2. Old comment: Ga2N2
  1.0000000000
  1.6450414762  -2.8492954173   0.0000000000
  1.6450414762   2.8492954173   0.0000000000
  0.0000000000   0.0000000000   5.3493509276
Ga    N
    2     2
Direct
  0.3333333333   0.6666666667   0.0000000000
  0.6666666667   0.3333333333   0.5000000000
  0.3333333333   0.6666666667   0.3750000000
  0.6666666667   0.3333333333   0.8750000000
