# Compound: In2N2. Old comment: In2N2
  1.0000000000
  1.7928768500  -3.1053538000  -0.0000000000
  1.7928768500   3.1053538000   0.0000000000
  0.0000000000   0.0000000000   5.7846007300
In    N
    2     2
Direct
  0.3333333300   0.6666666700   0.9978707500
  0.6666666700   0.3333333300   0.4978707500
  0.3333333300   0.6666666700   0.3771292500
  0.6666666700   0.3333333300   0.8771292500
