# Compound: In2N2. Old comment: In2N2
  1.0000000000
  1.8471829694  -3.1994147539   0.0000000000
  1.8471829694   3.1994147539   0.0000000000
  0.0000000000   0.0000000000   5.9432916640
In    N
    2     2
Direct
  0.3333333333   0.6666666667   0.0000000000
  0.6666666667   0.3333333333   0.5000000000
  0.3333333333   0.6666666667   0.3750000000
  0.6666666667   0.3333333333   0.8750000000
