# Compound: Sc2N2. Old comment: N2Sc2
  1.0000000000
  1.8482419800  -3.2012490200  -0.0000000000
  1.8482419800   3.2012490200   0.0000000000
  0.0000000000   0.0000000000   4.4436776500
Sc    N
    2     2
Direct
  0.3333333300   0.6666666700   0.9375572400
  0.6666666700   0.3333333300   0.4375572400
  0.3333333300   0.6666666700   0.4374427600
  0.6666666700   0.3333333300   0.9374427600
