# Compound: Sc2N2. Old comment: N2Sc2
  1.0000000000
  2.2262781270  -3.8560268277   0.0000000000
  2.2262781270   3.8560268277   0.0000000000
  0.0000000000   0.0000000000   5.3634425939
Sc    N
    2     2
Direct
  0.3333333333   0.6666666667   0.0000000000
  0.6666666667   0.3333333333   0.5000000000
  0.3333333333   0.6666666667   0.3750000000
  0.6666666667   0.3333333333   0.8750000000
